c Generated map
c Size: 10 * 10, weights in range: 1 to 10, walls: True, with ratio 0.1
c dim 3 of 6
c
p sp 100 147
c graph contains 100 nodes and 147 arcs
c
a 1 11 6
a 11 1 6
a 1 2 1
a 2 1 1
a 2 12 2
a 12 2 2
a 4 14 6
a 14 4 6
a 4 5 8
a 5 4 8
a 5 15 2
a 15 5 2
a 7 17 6
a 17 7 6
a 7 8 10
a 8 7 10
a 8 18 9
a 18 8 9
a 8 9 7
a 9 8 7
a 9 19 4
a 19 9 4
a 9 10 6
a 10 9 6
a 10 20 9
a 20 10 9
a 11 21 6
a 21 11 6
a 11 12 4
a 12 11 4
a 12 22 9
a 22 12 9
a 12 13 7
a 13 12 7
a 13 23 5
a 23 13 5
a 13 14 1
a 14 13 1
a 14 24 1
a 24 14 1
a 14 15 5
a 15 14 5
a 15 25 1
a 25 15 1
a 15 16 10
a 16 15 10
a 16 26 7
a 26 16 7
a 16 17 5
a 17 16 5
a 17 27 2
a 27 17 2
a 17 18 9
a 18 17 9
a 18 28 7
a 28 18 7
a 18 19 1
a 19 18 1
a 19 29 1
a 29 19 1
a 19 20 10
a 20 19 10
a 20 30 8
a 30 20 8
a 21 31 5
a 31 21 5
a 21 22 8
a 22 21 8
a 22 32 8
a 32 22 8
a 22 23 3
a 23 22 3
a 23 33 8
a 33 23 8
a 23 24 7
a 24 23 7
a 24 34 6
a 34 24 6
a 24 25 4
a 25 24 4
a 25 35 10
a 35 25 10
a 25 26 5
a 26 25 5
a 26 36 3
a 36 26 3
a 26 27 8
a 27 26 8
a 27 37 9
a 37 27 9
a 27 28 6
a 28 27 6
a 28 38 4
a 38 28 4
a 28 29 5
a 29 28 5
a 29 39 2
a 39 29 2
a 29 30 6
a 30 29 6
a 31 41 4
a 41 31 4
a 31 32 9
a 32 31 9
a 32 33 9
a 33 32 9
a 33 34 10
a 34 33 10
a 34 44 6
a 44 34 6
a 34 35 1
a 35 34 1
a 35 45 10
a 45 35 10
a 35 36 4
a 36 35 4
a 36 46 5
a 46 36 5
a 36 37 4
a 37 36 4
a 37 47 10
a 47 37 10
a 37 38 1
a 38 37 1
a 38 39 5
a 39 38 5
a 39 49 1
a 49 39 1
a 41 51 10
a 51 41 10
a 44 54 9
a 54 44 9
a 44 45 10
a 45 44 10
a 45 55 9
a 55 45 9
a 45 46 4
a 46 45 4
a 46 56 4
a 56 46 4
a 46 47 10
a 47 46 10
a 47 57 3
a 57 47 3
a 49 59 8
a 59 49 8
a 49 50 2
a 50 49 2
a 50 60 2
a 60 50 2
a 51 61 4
a 61 51 4
a 51 52 2
a 52 51 2
a 52 62 7
a 62 52 7
a 52 53 9
a 53 52 9
a 53 63 6
a 63 53 6
a 53 54 10
a 54 53 10
a 54 64 1
a 64 54 1
a 54 55 5
a 55 54 5
a 55 65 7
a 65 55 7
a 55 56 8
a 56 55 8
a 56 66 6
a 66 56 6
a 56 57 8
a 57 56 8
a 57 58 3
a 58 57 3
a 58 68 6
a 68 58 6
a 58 59 10
a 59 58 10
a 59 69 2
a 69 59 2
a 59 60 4
a 60 59 4
a 60 70 8
a 70 60 8
a 61 71 7
a 71 61 7
a 61 62 10
a 62 61 10
a 62 72 10
a 72 62 10
a 62 63 1
a 63 62 1
a 63 73 6
a 73 63 6
a 63 64 6
a 64 63 6
a 64 74 7
a 74 64 7
a 64 65 8
a 65 64 8
a 65 75 2
a 75 65 2
a 65 66 2
a 66 65 2
a 66 76 5
a 76 66 5
a 68 78 6
a 78 68 6
a 68 69 8
a 69 68 8
a 69 79 10
a 79 69 10
a 69 70 8
a 70 69 8
a 70 80 7
a 80 70 7
a 71 81 2
a 81 71 2
a 71 72 4
a 72 71 4
a 72 82 2
a 82 72 2
a 72 73 6
a 73 72 6
a 73 83 8
a 83 73 8
a 73 74 10
a 74 73 10
a 74 84 8
a 84 74 8
a 74 75 10
a 75 74 10
a 75 85 5
a 85 75 5
a 75 76 6
a 76 75 6
a 76 86 4
a 86 76 4
a 76 77 1
a 77 76 1
a 77 87 3
a 87 77 3
a 77 78 8
a 78 77 8
a 78 79 7
a 79 78 7
a 79 89 10
a 89 79 10
a 79 80 8
a 80 79 8
a 80 90 10
a 90 80 10
a 81 82 7
a 82 81 7
a 82 92 6
a 92 82 6
a 82 83 7
a 83 82 7
a 83 93 8
a 93 83 8
a 83 84 8
a 84 83 8
a 84 85 6
a 85 84 6
a 85 95 7
a 95 85 7
a 85 86 5
a 86 85 5
a 86 96 5
a 96 86 5
a 86 87 4
a 87 86 4
a 87 97 10
a 97 87 10
a 89 99 8
a 99 89 8
a 89 90 1
a 90 89 1
a 90 100 9
a 100 90 9
a 92 93 6
a 93 92 6
a 95 96 7
a 96 95 7
a 96 97 4
a 97 96 4
a 97 98 6
a 98 97 6
a 98 99 5
a 99 98 5
a 99 100 4
a 100 99 4
